p cnf 20 23                 
-2 -1 -5 0
5 -7 0
1 2 -6 0
6 -7 0
7 -12 0
-4 -3 -8 0
8 -10 0
3 4 -9 0
9 -10 0
10 -12 0
-2 -11 0
-1 -11 0
11 -12 0
-1 2 -13 0
13 -19 0
-1 -2 14 0
1 2 14 0
-2 2 14 0
-3 4 -15 0
-14 15 -16 0
16 -19 0
12 0
19 0
